language Essence 1.3

letting blksize_delta be
        function(1 --> 1, 2 --> 1, 3 --> 1, 4 --> 1, 5 --> 1, 6 --> 1, 7 --> 1, 8 --> 1, 9 --> 1, 10 --> 1, 11 --> 1,
                 12 --> 1, 13 --> 1, 14 --> 1, 15 --> 1, 16 --> 1, 17 --> 1)
letting maxcars be
        function(1 --> 3, 2 --> 3, 3 --> 3, 4 --> 2, 5 --> 3, 6 --> 3, 7 --> 2, 8 --> 3, 9 --> 3, 10 --> 3, 11 --> 3,
                 12 --> 3, 13 --> 3, 14 --> 2, 15 --> 3, 16 --> 3, 17 --> 2)
letting n_cars be 148
letting n_classes be 2
letting n_options be 17
letting quantity be function(1 --> 75, 2 --> 73)
letting usage be
        relation((1, 1), (1, 2), (1, 3), (1, 4), (1, 5), (1, 6), (1, 7), (1, 8), (1, 9), (1, 10), (1, 11), (1, 12),
                 (1, 13), (1, 14), (1, 15), (1, 16), (2, 17))
$ Visualisation for usage
$  1  1
$  1  2
$  1  3
$  1  4
$  1  5
$  1  6
$  1  7
$  1  8
$  1  9
$  1 10
$  1 11
$  1 12
$  1 13
$  1 14
$  1 15
$  1 16
$  2 17

